% seed = 0

mint = 40;
% maxt = 193;

nActs = 20;
dur = [0,6,13,18,5,8,5,10,7,17,5,14,13,5,9,19,8,16,15,0];

nSkills = 8;
sreq = [| 0,0,0,0,0,0,0,0,
	| 1,1,0,1,2,0,0,0,
	| 0,1,0,0,2,0,0,1,
	| 4,0,0,0,1,0,0,0,
	| 2,1,0,0,0,1,0,0,
	| 1,1,0,1,1,0,1,0,
	| 0,1,0,1,0,0,1,0,
	| 1,1,0,0,0,0,0,3,
	| 3,0,0,0,0,0,0,0,
	| 1,1,0,1,0,2,0,0,
	| 1,0,2,0,0,0,0,0,
	| 2,1,0,0,1,0,1,0,
	| 3,0,0,0,0,0,0,0,
	| 1,1,1,0,0,0,1,0,
	| 1,1,1,0,0,0,0,0,
	| 2,1,0,0,0,1,0,0,
	| 2,1,0,0,0,0,0,0,
	| 1,2,0,0,0,0,0,1,
	| 0,2,0,1,0,0,0,0,
	| 0,0,0,0,0,0,0,0, |];

% SumOfsreq = 71;

nResources = 10;
mastery = [| false,false,true,false,false,true,false,true,
	| false,false,true,false,true,true,true,false,
	| false,false,false,false,true,false,true,true,
	| true,true,true,false,false,false,true,false,
	| true,true,false,false,false,false,true,false,
	| false,false,false,true,false,true,true,true,
	| false,false,false,false,true,false,false,true,
	| false,true,true,false,false,false,true,true,
	| true,true,false,false,false,false,false,false,
	| true,false,false,true,false,true,true,false, |];

nPrecs = 31;
pred = [1,1,1,1,1,1,1,1,1,1,1,2,2,3,4,5,6,6,7,8,9,10,11,12,13,14,15,16,17,18,19];
succ = [2,3,4,5,6,7,8,9,10,17,19,18,16,20,16,14,11,16,20,13,20,12,18,15,20,20,20,20,20,20,20];

nUnrels = 141;
unpred = [2,2,2,2,2,2,2,2,2,2,2,2,2,2,2,3,3,3,3,3,3,3,3,3,3,3,3,3,3,3,3,4,4,4,4,4,4,4,4,4,4,4,4,4,4,5,5,5,5,5,5,5,5,5,5,5,5,5,6,6,6,6,6,6,6,6,6,6,7,7,7,7,7,7,7,7,7,7,7,7,8,8,8,8,8,8,8,8,8,8,9,9,9,9,9,9,9,9,9,9,10,10,10,10,10,10,10,11,11,11,11,11,11,11,12,12,12,12,12,12,13,13,13,13,13,13,14,14,14,14,14,15,15,15,15,16,16,16,17,17,18];
unsucc = [3,4,5,6,7,8,9,10,11,12,13,14,15,17,19,4,5,6,7,8,9,10,11,12,13,14,15,16,17,18,19,5,6,7,8,9,10,11,12,13,14,15,17,18,19,6,7,8,9,10,11,12,13,15,16,17,18,19,7,8,9,10,12,13,14,15,17,19,8,9,10,11,12,13,14,15,16,17,18,19,9,10,11,12,14,15,16,17,18,19,10,11,12,13,14,15,16,17,18,19,11,13,14,16,17,18,19,12,13,14,15,16,17,19,13,14,16,17,18,19,14,15,16,17,18,19,15,16,17,18,19,16,17,18,19,17,18,19,18,19,19];

USEFUL_RES = [{},
	{2,3,4,5,6,7,8,9,10},
	{1,2,3,4,5,6,7,8,9},
	{2,3,4,5,7,9,10},
	{1,2,4,5,6,8,9,10},
	{2,3,4,5,6,7,8,9,10},
	{2,3,4,5,6,8,9,10},
	{1,3,4,5,6,7,8,9,10},
	{4,5,9,10},
	{1,2,4,5,6,8,9,10},
	{1,2,4,5,8,9,10},
	{2,3,4,5,6,7,8,9,10},
	{4,5,9,10},
	{1,2,3,4,5,6,8,9,10},
	{1,2,4,5,8,9,10},
	{1,2,4,5,6,8,9,10},
	{4,5,8,9,10},
	{1,3,4,5,6,7,8,9,10},
	{4,5,6,8,9,10},
	{}];

POTENTIAL_ACT = [{3,5,8,10,11,14,15,16,18},
	{2,3,4,5,6,7,10,11,12,14,15,16},
	{2,3,4,6,7,8,12,14,18},
	{2,3,4,5,6,7,8,9,10,11,12,13,14,15,16,17,18,19},
	{2,3,4,5,6,7,8,9,10,11,12,13,14,15,16,17,18,19},
	{2,3,5,6,7,8,10,12,14,16,18,19},
	{2,3,4,6,8,12,18},
	{2,3,5,6,7,8,10,11,12,14,15,16,17,18,19},
	{2,3,4,5,6,7,8,9,10,11,12,13,14,15,16,17,18,19},
	{2,4,5,6,7,8,9,10,11,12,13,14,15,16,17,18,19}];
